Route #1: 115 114 106 107 108 109 120
Route #2: 78 133 68 70 69 110 122 121 127 124 125 123 111 112 126 128 129 113 81
Route #3: 66 71 33 80 67 79 63 64 77 134 76 74 73
Route #4: 72 47 32 34 48 49 50 52 51 54 58 31 30 23
Route #5: 75 1 62 55 53 102 103 104 101 100 98 99 35 36 37 95 39 38 96 97 105 57 56 61 60 59 24 22
Route #6: 91 21 25 26 27 28 92 29 93 94 45 44 43 40 3 41 42 2 4 5 6 7 8 9 10 11 12 14 88 15 13 16 90 89 87 86 84 85 83 20 82
Route #7: 19 65 130 119 117 131 116 132 18 17 118 46
Cost 1163
Time 1.40095
Tempo = 1.4122263000026578